p cnf 78 194
1 2 0
-1 -2 0
13 14 0
-13 -14 0
25 26 0
-25 -26 0
3 4 0
-3 -4 0
15 16 0
-15 -16 0
27 28 0
-27 -28 0
5 6 0
-5 -6 0
17 18 0
-17 -18 0
29 30 0
-29 -30 0
7 8 0
-7 -8 0
19 20 0
-19 -20 0
31 32 0
-31 -32 0
9 10 0
-9 -10 0
21 22 0
-21 -22 0
33 34 0
-33 -34 0
11 12 0
-11 -12 0
23 24 0
-23 -24 0
35 36 0
-35 -36 0
-1 -13 -25 4 0
-1 -14 -25 4 0
-1 -13 -26 4 0
-1 -14 -26 4 0
-2 -13 -25 4 0
-2 -14 -25 4 0
-2 -13 -26 4 0
-2 -14 -26 3 0
-13 -1 16 0
-13 -2 16 0
-14 -1 16 0
-14 -2 15 0
-25 -1 28 0
-25 -2 28 0
-26 -1 28 0
-26 -2 27 0
-3 -15 -27 6 0
-3 -16 -27 6 0
-3 -15 -28 6 0
-3 -16 -28 6 0
-4 -15 -27 6 0
-4 -16 -27 6 0
-4 -15 -28 6 0
-4 -16 -28 5 0
-15 -3 18 0
-15 -4 18 0
-16 -3 18 0
-16 -4 17 0
-27 -3 30 0
-27 -4 30 0
-28 -3 30 0
-28 -4 29 0
-5 -17 -29 8 0
-5 -18 -29 8 0
-5 -17 -30 8 0
-5 -18 -30 8 0
-6 -17 -29 8 0
-6 -18 -29 8 0
-6 -17 -30 8 0
-6 -18 -30 7 0
-17 -5 20 0
-17 -6 20 0
-18 -5 20 0
-18 -6 19 0
-29 -5 32 0
-29 -6 32 0
-30 -5 32 0
-30 -6 31 0
-7 -19 -31 10 0
-7 -20 -31 10 0
-7 -19 -32 10 0
-7 -20 -32 10 0
-8 -19 -31 10 0
-8 -20 -31 10 0
-8 -19 -32 10 0
-8 -20 -32 9 0
-19 -7 22 0
-19 -8 22 0
-20 -7 22 0
-20 -8 21 0
-31 -7 34 0
-31 -8 34 0
-32 -7 34 0
-32 -8 33 0
-9 -21 -33 12 0
-9 -22 -33 12 0
-9 -21 -34 12 0
-9 -22 -34 12 0
-10 -21 -33 12 0
-10 -22 -33 12 0
-10 -21 -34 12 0
-10 -22 -34 11 0
-21 -9 24 0
-21 -10 24 0
-22 -9 24 0
-22 -10 23 0
-33 -9 36 0
-33 -10 36 0
-34 -9 36 0
-34 -10 35 0
38 39 40 41 42 0
45 46 -38 0
1 -45 0
3 -45 0
2 -46 0
4 -46 0
57 58 -38 0
13 -57 0
15 -57 0
14 -58 0
16 -58 0
69 70 -38 0
25 -69 0
27 -69 0
26 -70 0
28 -70 0
47 48 -39 0
1 -47 0
5 -47 0
2 -48 0
6 -48 0
59 60 -39 0
13 -59 0
17 -59 0
14 -60 0
18 -60 0
71 72 -39 0
25 -71 0
29 -71 0
26 -72 0
30 -72 0
49 50 -40 0
1 -49 0
7 -49 0
2 -50 0
8 -50 0
61 62 -40 0
13 -61 0
19 -61 0
14 -62 0
20 -62 0
73 74 -40 0
25 -73 0
31 -73 0
26 -74 0
32 -74 0
51 52 -41 0
1 -51 0
9 -51 0
2 -52 0
10 -52 0
63 64 -41 0
13 -63 0
21 -63 0
14 -64 0
22 -64 0
75 76 -41 0
25 -75 0
33 -75 0
26 -76 0
34 -76 0
53 54 -42 0
1 -53 0
11 -53 0
2 -54 0
12 -54 0
65 66 -42 0
13 -65 0
23 -65 0
14 -66 0
24 -66 0
77 78 -42 0
25 -77 0
35 -77 0
26 -78 0
36 -78 0
-1 -13 -25 0
-2 -14 -26 0
